c File: data_files/evolved_graphs/g5007.col
c
c Auto generated graph
c
p edge 100 19
e 2 45
e 3 53
e 3 54
e 3 55
e 4 10
e 5 50
e 9 100
e 11 43
e 11 58
e 12 63
e 14 43
e 15 30
e 16 25
e 18 50
e 20 27
e 22 52
e 24 26
e 24 100
e 38 40
